n_machines = 3;
n_resources = 4;
n_jobs = 80;
horizon = 3956;
LB = 1318;
n_jobs_per_resource = [20, 20, 20, 20];
duration = [46, 37, 94, 9, 46, 55, 14, 29, 61, 2, 71, 57, 82, 95, 51, 32, 37, 69, 48, 31, 55, 62, 62, 75, 61, 92, 37, 86, 34, 10, 47, 47, 85, 45, 14, 42, 59, 46, 56, 9, 58, 14, 13, 11, 92, 57, 86, 42, 96, 22, 13, 10, 58, 92, 56, 32, 70, 59, 11, 72, 1, 2, 38, 81, 53, 98, 56, 20, 36, 23, 59, 89, 28, 42, 84, 26, 71, 79, 88, 28]